&control
  calculation = 'nscf'
  prefix      = 'MnBi2Te4'
  outdir      = './tmp/'
  verbosity   = 'high'
  pseudo_dir  = './'
/
&system
  ibrav    = 5,              ! use built-in routines to build cell
  celldm(1) = 51.775623441 ! length ob rhombohedral cell edge
  celldm(4) = 0.987491227126468 ! cos(\gamma), with \gamma angle between any pair of primitive lattice vectors.
  nat      = 14,             ! Te-Bi-Te-Mn-Te-Bi-Te
  ntyp     = 4,              ! Mn1, Mn2, Bi, Te
  ecutwfc  = 60.0,           ! plane-wave cutoff (Ry)—tune as needed
  ecutrho =  240.0,
  nbnd = 200
  nosym = .false.
  !nspin    = 2,              ! spin-polarized (not needed for SOC calcs)
  starting_magnetization(1) = 0.333,  ! Mn1
  starting_magnetization(2) = 0.333,  ! Mn2
  angle1(1) = 0.0   !Specifies angle of spin with respect to z-axis
  angle1(2) = 180.0 ! Mn2 has opposite spin, i.e., angle1 = 180 degrees
  angle2(1) = 0.0   ! Specifies the azimuthal angle (in the plane perpendicular to z). It is irrelevant in this case
  angle2(2) = 0.0 
  occupations = 'smearing'
  smearing    = 'm-v'
  degauss     = 0.02
  noncolin        =  .true.
  lspinorb        =  .true.
  report = 1
  vdw_corr = 'dft-d3'
!  constrained_magnetization = 'total'
!  fixed_magnetization(1) = 0.0
!  fixed_magnetization(2) = 0.0
!  fixed_magnetization(3) = 0.0
/
&electrons
  conv_thr = 3.0d-5
  electron_maxstep = 300
  mixing_beta = 0.3
!  mixing_mode = 'local-TF'
/

ATOMIC_SPECIES
 Mn1  54.9380  Mn.rel-pbe-spn-kjpaw_psl.1.0.0.UPF
 Mn2  54.9380  Mn.rel-pbe-spn-kjpaw_psl.1.0.0.UPF
 Bi 208.9800  Bi.rel-pbe-dn-kjpaw_psl.1.0.0.UPF
 Te 127.6030  Te.rel-pbe-n-kjpaw_psl.1.0.0.UPF
 HUBBARD (ortho-atomic)
U Mn1-3d 4.0
U Mn2-3d 4.0
ATOMIC_POSITIONS crystal
Mn1          0.0000000000       0.0000000000       0.0000000000
Mn2          0.5000000000       0.5000000000       0.5000000000
Bi           0.2124500000       0.2124500000       0.2124500000
Bi           0.7124500000       0.7124500000       0.7124500000
Bi           0.2875500000       0.2875500000       0.2875500000
Bi           0.7875500000       0.7875500000       0.7875500000
Te           0.0666800000       0.0666800000       0.0666800000
Te           0.5666800000       0.5666800000       0.5666800000
Te           0.4333200000       0.4333200000       0.4333200000
Te           0.9333200000       0.9333200000       0.9333200000
Te           0.1470300000       0.1470300000       0.1470300000
Te           0.6470300000       0.6470300000       0.6470300000
Te           0.3529700000       0.3529700000       0.3529700000
Te           0.8529700000       0.8529700000       0.8529700000

K_POINTS automatic
  8 8 8  0 0 0