&inputpp
    outdir='./tmp/'
    prefix='MnBi2Te4',
    seedname = 'MnBi2Te4'
    write_amn = .true.
    write_mmn = .true.
    write_unk = .false.
    write_eig = .true.
   !write_uhu = .true.
   !write_uIu = .true.
/
