num_bands = 240
num_wann = 92

dis_win_min = -7
dis_win_max = 20
dis_froz_min = 0
dis_froz_max =  10
dis_conv_tol = 1e-10
dis_num_iter =  5000
!dis_mix_ratio = 1.0

use_ws_distance = true
spinors = true
bands_plot = true
write_hr = true
write_xyz = true
translate_home_cell = false

begin atoms_cart
ang
Mn1 0.000000000000 0.000000000000 0.000000000000
Mn2 0.000000000000 0.000000000000 40.926002980857
Bi  0.000000000000 0.000000000000 17.399457591176
Bi  0.000000000000 0.000000000000 58.305460572032
Bi  0.000000000000 0.000000000000 23.526542649833
Bi  0.000000000000 0.000000000000 64.472545630690
Te  0.000000000000 0.000000000000 5.457892683596
Te  0.000000000000 0.000000000000 46.383892924604
Te  0.000000000000 0.000000000000 35.468110297261
Te  0.000000000000 0.000000000000 76.394113278118
Te  0.000000000000 0.000000000000 12.034701013289
Te  0.000000000000 0.000000000000 52.960701254297
Te  0.000000000000 0.000000000000 28.891301967568
Te  0.000000000000 0.000000000000 69.817302208577
end atoms_cart

begin unit_cell_cart
bohr
4.09467518    -2.36407497    51.55930489
0.00000000     4.72809816    51.55930489
-4.09467518   -2.36407497    51.55930489
end unit_cell_cart

begin projections
Bi: p
Te: p
Mn1: d
Mn2: d
end projections

begin kpoint_path
G 0.0 0.0 0.0 T 0.5 0.5 0.5
T 0.5 0.5 0.5 P1 0.6638635638 0.1722728724 0.6638635638
P1 0.6638635638	0.1722728724 0.6638635638 F 0.5 0.0 0.5 
F 0.5 0.0 0.5 G 0.0 0.0 0.0
G 0.0 0.0 0.0 L 0.5 0.0 0.0
end kpoint_path

mp_grid  = 8 8 8
kmesh_tol = 1e-4

begin kpoints
0.000000000000 0.000000000000 0.000000000000
0.000000000000 0.000000000000 0.125000000000
0.000000000000 0.000000000000 0.250000000000
0.000000000000 0.000000000000 0.375000000000
0.000000000000 0.000000000000 0.500000000000
0.000000000000 0.000000000000 0.625000000000
0.000000000000 0.000000000000 0.750000000000
0.000000000000 0.000000000000 0.875000000000
0.000000000000 0.125000000000 0.000000000000
0.000000000000 0.125000000000 0.125000000000
0.000000000000 0.125000000000 0.250000000000
0.000000000000 0.125000000000 0.375000000000
0.000000000000 0.125000000000 0.500000000000
0.000000000000 0.125000000000 0.625000000000
0.000000000000 0.125000000000 0.750000000000
0.000000000000 0.125000000000 0.875000000000
0.000000000000 0.250000000000 0.000000000000
0.000000000000 0.250000000000 0.125000000000
0.000000000000 0.250000000000 0.250000000000
0.000000000000 0.250000000000 0.375000000000
0.000000000000 0.250000000000 0.500000000000
0.000000000000 0.250000000000 0.625000000000
0.000000000000 0.250000000000 0.750000000000
0.000000000000 0.250000000000 0.875000000000
0.000000000000 0.375000000000 0.000000000000
0.000000000000 0.375000000000 0.125000000000
0.000000000000 0.375000000000 0.250000000000
0.000000000000 0.375000000000 0.375000000000
0.000000000000 0.375000000000 0.500000000000
0.000000000000 0.375000000000 0.625000000000
0.000000000000 0.375000000000 0.750000000000
0.000000000000 0.375000000000 0.875000000000
0.000000000000 0.500000000000 0.000000000000
0.000000000000 0.500000000000 0.125000000000
0.000000000000 0.500000000000 0.250000000000
0.000000000000 0.500000000000 0.375000000000
0.000000000000 0.500000000000 0.500000000000
0.000000000000 0.500000000000 0.625000000000
0.000000000000 0.500000000000 0.750000000000
0.000000000000 0.500000000000 0.875000000000
0.000000000000 0.625000000000 0.000000000000
0.000000000000 0.625000000000 0.125000000000
0.000000000000 0.625000000000 0.250000000000
0.000000000000 0.625000000000 0.375000000000
0.000000000000 0.625000000000 0.500000000000
0.000000000000 0.625000000000 0.625000000000
0.000000000000 0.625000000000 0.750000000000
0.000000000000 0.625000000000 0.875000000000
0.000000000000 0.750000000000 0.000000000000
0.000000000000 0.750000000000 0.125000000000
0.000000000000 0.750000000000 0.250000000000
0.000000000000 0.750000000000 0.375000000000
0.000000000000 0.750000000000 0.500000000000
0.000000000000 0.750000000000 0.625000000000
0.000000000000 0.750000000000 0.750000000000
0.000000000000 0.750000000000 0.875000000000
0.000000000000 0.875000000000 0.000000000000
0.000000000000 0.875000000000 0.125000000000
0.000000000000 0.875000000000 0.250000000000
0.000000000000 0.875000000000 0.375000000000
0.000000000000 0.875000000000 0.500000000000
0.000000000000 0.875000000000 0.625000000000
0.000000000000 0.875000000000 0.750000000000
0.000000000000 0.875000000000 0.875000000000
0.125000000000 0.000000000000 0.000000000000
0.125000000000 0.000000000000 0.125000000000
0.125000000000 0.000000000000 0.250000000000
0.125000000000 0.000000000000 0.375000000000
0.125000000000 0.000000000000 0.500000000000
0.125000000000 0.000000000000 0.625000000000
0.125000000000 0.000000000000 0.750000000000
0.125000000000 0.000000000000 0.875000000000
0.125000000000 0.125000000000 0.000000000000
0.125000000000 0.125000000000 0.125000000000
0.125000000000 0.125000000000 0.250000000000
0.125000000000 0.125000000000 0.375000000000
0.125000000000 0.125000000000 0.500000000000
0.125000000000 0.125000000000 0.625000000000
0.125000000000 0.125000000000 0.750000000000
0.125000000000 0.125000000000 0.875000000000
0.125000000000 0.250000000000 0.000000000000
0.125000000000 0.250000000000 0.125000000000
0.125000000000 0.250000000000 0.250000000000
0.125000000000 0.250000000000 0.375000000000
0.125000000000 0.250000000000 0.500000000000
0.125000000000 0.250000000000 0.625000000000
0.125000000000 0.250000000000 0.750000000000
0.125000000000 0.250000000000 0.875000000000
0.125000000000 0.375000000000 0.000000000000
0.125000000000 0.375000000000 0.125000000000
0.125000000000 0.375000000000 0.250000000000
0.125000000000 0.375000000000 0.375000000000
0.125000000000 0.375000000000 0.500000000000
0.125000000000 0.375000000000 0.625000000000
0.125000000000 0.375000000000 0.750000000000
0.125000000000 0.375000000000 0.875000000000
0.125000000000 0.500000000000 0.000000000000
0.125000000000 0.500000000000 0.125000000000
0.125000000000 0.500000000000 0.250000000000
0.125000000000 0.500000000000 0.375000000000
0.125000000000 0.500000000000 0.500000000000
0.125000000000 0.500000000000 0.625000000000
0.125000000000 0.500000000000 0.750000000000
0.125000000000 0.500000000000 0.875000000000
0.125000000000 0.625000000000 0.000000000000
0.125000000000 0.625000000000 0.125000000000
0.125000000000 0.625000000000 0.250000000000
0.125000000000 0.625000000000 0.375000000000
0.125000000000 0.625000000000 0.500000000000
0.125000000000 0.625000000000 0.625000000000
0.125000000000 0.625000000000 0.750000000000
0.125000000000 0.625000000000 0.875000000000
0.125000000000 0.750000000000 0.000000000000
0.125000000000 0.750000000000 0.125000000000
0.125000000000 0.750000000000 0.250000000000
0.125000000000 0.750000000000 0.375000000000
0.125000000000 0.750000000000 0.500000000000
0.125000000000 0.750000000000 0.625000000000
0.125000000000 0.750000000000 0.750000000000
0.125000000000 0.750000000000 0.875000000000
0.125000000000 0.875000000000 0.000000000000
0.125000000000 0.875000000000 0.125000000000
0.125000000000 0.875000000000 0.250000000000
0.125000000000 0.875000000000 0.375000000000
0.125000000000 0.875000000000 0.500000000000
0.125000000000 0.875000000000 0.625000000000
0.125000000000 0.875000000000 0.750000000000
0.125000000000 0.875000000000 0.875000000000
0.250000000000 0.000000000000 0.000000000000
0.250000000000 0.000000000000 0.125000000000
0.250000000000 0.000000000000 0.250000000000
0.250000000000 0.000000000000 0.375000000000
0.250000000000 0.000000000000 0.500000000000
0.250000000000 0.000000000000 0.625000000000
0.250000000000 0.000000000000 0.750000000000
0.250000000000 0.000000000000 0.875000000000
0.250000000000 0.125000000000 0.000000000000
0.250000000000 0.125000000000 0.125000000000
0.250000000000 0.125000000000 0.250000000000
0.250000000000 0.125000000000 0.375000000000
0.250000000000 0.125000000000 0.500000000000
0.250000000000 0.125000000000 0.625000000000
0.250000000000 0.125000000000 0.750000000000
0.250000000000 0.125000000000 0.875000000000
0.250000000000 0.250000000000 0.000000000000
0.250000000000 0.250000000000 0.125000000000
0.250000000000 0.250000000000 0.250000000000
0.250000000000 0.250000000000 0.375000000000
0.250000000000 0.250000000000 0.500000000000
0.250000000000 0.250000000000 0.625000000000
0.250000000000 0.250000000000 0.750000000000
0.250000000000 0.250000000000 0.875000000000
0.250000000000 0.375000000000 0.000000000000
0.250000000000 0.375000000000 0.125000000000
0.250000000000 0.375000000000 0.250000000000
0.250000000000 0.375000000000 0.375000000000
0.250000000000 0.375000000000 0.500000000000
0.250000000000 0.375000000000 0.625000000000
0.250000000000 0.375000000000 0.750000000000
0.250000000000 0.375000000000 0.875000000000
0.250000000000 0.500000000000 0.000000000000
0.250000000000 0.500000000000 0.125000000000
0.250000000000 0.500000000000 0.250000000000
0.250000000000 0.500000000000 0.375000000000
0.250000000000 0.500000000000 0.500000000000
0.250000000000 0.500000000000 0.625000000000
0.250000000000 0.500000000000 0.750000000000
0.250000000000 0.500000000000 0.875000000000
0.250000000000 0.625000000000 0.000000000000
0.250000000000 0.625000000000 0.125000000000
0.250000000000 0.625000000000 0.250000000000
0.250000000000 0.625000000000 0.375000000000
0.250000000000 0.625000000000 0.500000000000
0.250000000000 0.625000000000 0.625000000000
0.250000000000 0.625000000000 0.750000000000
0.250000000000 0.625000000000 0.875000000000
0.250000000000 0.750000000000 0.000000000000
0.250000000000 0.750000000000 0.125000000000
0.250000000000 0.750000000000 0.250000000000
0.250000000000 0.750000000000 0.375000000000
0.250000000000 0.750000000000 0.500000000000
0.250000000000 0.750000000000 0.625000000000
0.250000000000 0.750000000000 0.750000000000
0.250000000000 0.750000000000 0.875000000000
0.250000000000 0.875000000000 0.000000000000
0.250000000000 0.875000000000 0.125000000000
0.250000000000 0.875000000000 0.250000000000
0.250000000000 0.875000000000 0.375000000000
0.250000000000 0.875000000000 0.500000000000
0.250000000000 0.875000000000 0.625000000000
0.250000000000 0.875000000000 0.750000000000
0.250000000000 0.875000000000 0.875000000000
0.375000000000 0.000000000000 0.000000000000
0.375000000000 0.000000000000 0.125000000000
0.375000000000 0.000000000000 0.250000000000
0.375000000000 0.000000000000 0.375000000000
0.375000000000 0.000000000000 0.500000000000
0.375000000000 0.000000000000 0.625000000000
0.375000000000 0.000000000000 0.750000000000
0.375000000000 0.000000000000 0.875000000000
0.375000000000 0.125000000000 0.000000000000
0.375000000000 0.125000000000 0.125000000000
0.375000000000 0.125000000000 0.250000000000
0.375000000000 0.125000000000 0.375000000000
0.375000000000 0.125000000000 0.500000000000
0.375000000000 0.125000000000 0.625000000000
0.375000000000 0.125000000000 0.750000000000
0.375000000000 0.125000000000 0.875000000000
0.375000000000 0.250000000000 0.000000000000
0.375000000000 0.250000000000 0.125000000000
0.375000000000 0.250000000000 0.250000000000
0.375000000000 0.250000000000 0.375000000000
0.375000000000 0.250000000000 0.500000000000
0.375000000000 0.250000000000 0.625000000000
0.375000000000 0.250000000000 0.750000000000
0.375000000000 0.250000000000 0.875000000000
0.375000000000 0.375000000000 0.000000000000
0.375000000000 0.375000000000 0.125000000000
0.375000000000 0.375000000000 0.250000000000
0.375000000000 0.375000000000 0.375000000000
0.375000000000 0.375000000000 0.500000000000
0.375000000000 0.375000000000 0.625000000000
0.375000000000 0.375000000000 0.750000000000
0.375000000000 0.375000000000 0.875000000000
0.375000000000 0.500000000000 0.000000000000
0.375000000000 0.500000000000 0.125000000000
0.375000000000 0.500000000000 0.250000000000
0.375000000000 0.500000000000 0.375000000000
0.375000000000 0.500000000000 0.500000000000
0.375000000000 0.500000000000 0.625000000000
0.375000000000 0.500000000000 0.750000000000
0.375000000000 0.500000000000 0.875000000000
0.375000000000 0.625000000000 0.000000000000
0.375000000000 0.625000000000 0.125000000000
0.375000000000 0.625000000000 0.250000000000
0.375000000000 0.625000000000 0.375000000000
0.375000000000 0.625000000000 0.500000000000
0.375000000000 0.625000000000 0.625000000000
0.375000000000 0.625000000000 0.750000000000
0.375000000000 0.625000000000 0.875000000000
0.375000000000 0.750000000000 0.000000000000
0.375000000000 0.750000000000 0.125000000000
0.375000000000 0.750000000000 0.250000000000
0.375000000000 0.750000000000 0.375000000000
0.375000000000 0.750000000000 0.500000000000
0.375000000000 0.750000000000 0.625000000000
0.375000000000 0.750000000000 0.750000000000
0.375000000000 0.750000000000 0.875000000000
0.375000000000 0.875000000000 0.000000000000
0.375000000000 0.875000000000 0.125000000000
0.375000000000 0.875000000000 0.250000000000
0.375000000000 0.875000000000 0.375000000000
0.375000000000 0.875000000000 0.500000000000
0.375000000000 0.875000000000 0.625000000000
0.375000000000 0.875000000000 0.750000000000
0.375000000000 0.875000000000 0.875000000000
0.500000000000 0.000000000000 0.000000000000
0.500000000000 0.000000000000 0.125000000000
0.500000000000 0.000000000000 0.250000000000
0.500000000000 0.000000000000 0.375000000000
0.500000000000 0.000000000000 0.500000000000
0.500000000000 0.000000000000 0.625000000000
0.500000000000 0.000000000000 0.750000000000
0.500000000000 0.000000000000 0.875000000000
0.500000000000 0.125000000000 0.000000000000
0.500000000000 0.125000000000 0.125000000000
0.500000000000 0.125000000000 0.250000000000
0.500000000000 0.125000000000 0.375000000000
0.500000000000 0.125000000000 0.500000000000
0.500000000000 0.125000000000 0.625000000000
0.500000000000 0.125000000000 0.750000000000
0.500000000000 0.125000000000 0.875000000000
0.500000000000 0.250000000000 0.000000000000
0.500000000000 0.250000000000 0.125000000000
0.500000000000 0.250000000000 0.250000000000
0.500000000000 0.250000000000 0.375000000000
0.500000000000 0.250000000000 0.500000000000
0.500000000000 0.250000000000 0.625000000000
0.500000000000 0.250000000000 0.750000000000
0.500000000000 0.250000000000 0.875000000000
0.500000000000 0.375000000000 0.000000000000
0.500000000000 0.375000000000 0.125000000000
0.500000000000 0.375000000000 0.250000000000
0.500000000000 0.375000000000 0.375000000000
0.500000000000 0.375000000000 0.500000000000
0.500000000000 0.375000000000 0.625000000000
0.500000000000 0.375000000000 0.750000000000
0.500000000000 0.375000000000 0.875000000000
0.500000000000 0.500000000000 0.000000000000
0.500000000000 0.500000000000 0.125000000000
0.500000000000 0.500000000000 0.250000000000
0.500000000000 0.500000000000 0.375000000000
0.500000000000 0.500000000000 0.500000000000
0.500000000000 0.500000000000 0.625000000000
0.500000000000 0.500000000000 0.750000000000
0.500000000000 0.500000000000 0.875000000000
0.500000000000 0.625000000000 0.000000000000
0.500000000000 0.625000000000 0.125000000000
0.500000000000 0.625000000000 0.250000000000
0.500000000000 0.625000000000 0.375000000000
0.500000000000 0.625000000000 0.500000000000
0.500000000000 0.625000000000 0.625000000000
0.500000000000 0.625000000000 0.750000000000
0.500000000000 0.625000000000 0.875000000000
0.500000000000 0.750000000000 0.000000000000
0.500000000000 0.750000000000 0.125000000000
0.500000000000 0.750000000000 0.250000000000
0.500000000000 0.750000000000 0.375000000000
0.500000000000 0.750000000000 0.500000000000
0.500000000000 0.750000000000 0.625000000000
0.500000000000 0.750000000000 0.750000000000
0.500000000000 0.750000000000 0.875000000000
0.500000000000 0.875000000000 0.000000000000
0.500000000000 0.875000000000 0.125000000000
0.500000000000 0.875000000000 0.250000000000
0.500000000000 0.875000000000 0.375000000000
0.500000000000 0.875000000000 0.500000000000
0.500000000000 0.875000000000 0.625000000000
0.500000000000 0.875000000000 0.750000000000
0.500000000000 0.875000000000 0.875000000000
0.625000000000 0.000000000000 0.000000000000
0.625000000000 0.000000000000 0.125000000000
0.625000000000 0.000000000000 0.250000000000
0.625000000000 0.000000000000 0.375000000000
0.625000000000 0.000000000000 0.500000000000
0.625000000000 0.000000000000 0.625000000000
0.625000000000 0.000000000000 0.750000000000
0.625000000000 0.000000000000 0.875000000000
0.625000000000 0.125000000000 0.000000000000
0.625000000000 0.125000000000 0.125000000000
0.625000000000 0.125000000000 0.250000000000
0.625000000000 0.125000000000 0.375000000000
0.625000000000 0.125000000000 0.500000000000
0.625000000000 0.125000000000 0.625000000000
0.625000000000 0.125000000000 0.750000000000
0.625000000000 0.125000000000 0.875000000000
0.625000000000 0.250000000000 0.000000000000
0.625000000000 0.250000000000 0.125000000000
0.625000000000 0.250000000000 0.250000000000
0.625000000000 0.250000000000 0.375000000000
0.625000000000 0.250000000000 0.500000000000
0.625000000000 0.250000000000 0.625000000000
0.625000000000 0.250000000000 0.750000000000
0.625000000000 0.250000000000 0.875000000000
0.625000000000 0.375000000000 0.000000000000
0.625000000000 0.375000000000 0.125000000000
0.625000000000 0.375000000000 0.250000000000
0.625000000000 0.375000000000 0.375000000000
0.625000000000 0.375000000000 0.500000000000
0.625000000000 0.375000000000 0.625000000000
0.625000000000 0.375000000000 0.750000000000
0.625000000000 0.375000000000 0.875000000000
0.625000000000 0.500000000000 0.000000000000
0.625000000000 0.500000000000 0.125000000000
0.625000000000 0.500000000000 0.250000000000
0.625000000000 0.500000000000 0.375000000000
0.625000000000 0.500000000000 0.500000000000
0.625000000000 0.500000000000 0.625000000000
0.625000000000 0.500000000000 0.750000000000
0.625000000000 0.500000000000 0.875000000000
0.625000000000 0.625000000000 0.000000000000
0.625000000000 0.625000000000 0.125000000000
0.625000000000 0.625000000000 0.250000000000
0.625000000000 0.625000000000 0.375000000000
0.625000000000 0.625000000000 0.500000000000
0.625000000000 0.625000000000 0.625000000000
0.625000000000 0.625000000000 0.750000000000
0.625000000000 0.625000000000 0.875000000000
0.625000000000 0.750000000000 0.000000000000
0.625000000000 0.750000000000 0.125000000000
0.625000000000 0.750000000000 0.250000000000
0.625000000000 0.750000000000 0.375000000000
0.625000000000 0.750000000000 0.500000000000
0.625000000000 0.750000000000 0.625000000000
0.625000000000 0.750000000000 0.750000000000
0.625000000000 0.750000000000 0.875000000000
0.625000000000 0.875000000000 0.000000000000
0.625000000000 0.875000000000 0.125000000000
0.625000000000 0.875000000000 0.250000000000
0.625000000000 0.875000000000 0.375000000000
0.625000000000 0.875000000000 0.500000000000
0.625000000000 0.875000000000 0.625000000000
0.625000000000 0.875000000000 0.750000000000
0.625000000000 0.875000000000 0.875000000000
0.750000000000 0.000000000000 0.000000000000
0.750000000000 0.000000000000 0.125000000000
0.750000000000 0.000000000000 0.250000000000
0.750000000000 0.000000000000 0.375000000000
0.750000000000 0.000000000000 0.500000000000
0.750000000000 0.000000000000 0.625000000000
0.750000000000 0.000000000000 0.750000000000
0.750000000000 0.000000000000 0.875000000000
0.750000000000 0.125000000000 0.000000000000
0.750000000000 0.125000000000 0.125000000000
0.750000000000 0.125000000000 0.250000000000
0.750000000000 0.125000000000 0.375000000000
0.750000000000 0.125000000000 0.500000000000
0.750000000000 0.125000000000 0.625000000000
0.750000000000 0.125000000000 0.750000000000
0.750000000000 0.125000000000 0.875000000000
0.750000000000 0.250000000000 0.000000000000
0.750000000000 0.250000000000 0.125000000000
0.750000000000 0.250000000000 0.250000000000
0.750000000000 0.250000000000 0.375000000000
0.750000000000 0.250000000000 0.500000000000
0.750000000000 0.250000000000 0.625000000000
0.750000000000 0.250000000000 0.750000000000
0.750000000000 0.250000000000 0.875000000000
0.750000000000 0.375000000000 0.000000000000
0.750000000000 0.375000000000 0.125000000000
0.750000000000 0.375000000000 0.250000000000
0.750000000000 0.375000000000 0.375000000000
0.750000000000 0.375000000000 0.500000000000
0.750000000000 0.375000000000 0.625000000000
0.750000000000 0.375000000000 0.750000000000
0.750000000000 0.375000000000 0.875000000000
0.750000000000 0.500000000000 0.000000000000
0.750000000000 0.500000000000 0.125000000000
0.750000000000 0.500000000000 0.250000000000
0.750000000000 0.500000000000 0.375000000000
0.750000000000 0.500000000000 0.500000000000
0.750000000000 0.500000000000 0.625000000000
0.750000000000 0.500000000000 0.750000000000
0.750000000000 0.500000000000 0.875000000000
0.750000000000 0.625000000000 0.000000000000
0.750000000000 0.625000000000 0.125000000000
0.750000000000 0.625000000000 0.250000000000
0.750000000000 0.625000000000 0.375000000000
0.750000000000 0.625000000000 0.500000000000
0.750000000000 0.625000000000 0.625000000000
0.750000000000 0.625000000000 0.750000000000
0.750000000000 0.625000000000 0.875000000000
0.750000000000 0.750000000000 0.000000000000
0.750000000000 0.750000000000 0.125000000000
0.750000000000 0.750000000000 0.250000000000
0.750000000000 0.750000000000 0.375000000000
0.750000000000 0.750000000000 0.500000000000
0.750000000000 0.750000000000 0.625000000000
0.750000000000 0.750000000000 0.750000000000
0.750000000000 0.750000000000 0.875000000000
0.750000000000 0.875000000000 0.000000000000
0.750000000000 0.875000000000 0.125000000000
0.750000000000 0.875000000000 0.250000000000
0.750000000000 0.875000000000 0.375000000000
0.750000000000 0.875000000000 0.500000000000
0.750000000000 0.875000000000 0.625000000000
0.750000000000 0.875000000000 0.750000000000
0.750000000000 0.875000000000 0.875000000000
0.875000000000 0.000000000000 0.000000000000
0.875000000000 0.000000000000 0.125000000000
0.875000000000 0.000000000000 0.250000000000
0.875000000000 0.000000000000 0.375000000000
0.875000000000 0.000000000000 0.500000000000
0.875000000000 0.000000000000 0.625000000000
0.875000000000 0.000000000000 0.750000000000
0.875000000000 0.000000000000 0.875000000000
0.875000000000 0.125000000000 0.000000000000
0.875000000000 0.125000000000 0.125000000000
0.875000000000 0.125000000000 0.250000000000
0.875000000000 0.125000000000 0.375000000000
0.875000000000 0.125000000000 0.500000000000
0.875000000000 0.125000000000 0.625000000000
0.875000000000 0.125000000000 0.750000000000
0.875000000000 0.125000000000 0.875000000000
0.875000000000 0.250000000000 0.000000000000
0.875000000000 0.250000000000 0.125000000000
0.875000000000 0.250000000000 0.250000000000
0.875000000000 0.250000000000 0.375000000000
0.875000000000 0.250000000000 0.500000000000
0.875000000000 0.250000000000 0.625000000000
0.875000000000 0.250000000000 0.750000000000
0.875000000000 0.250000000000 0.875000000000
0.875000000000 0.375000000000 0.000000000000
0.875000000000 0.375000000000 0.125000000000
0.875000000000 0.375000000000 0.250000000000
0.875000000000 0.375000000000 0.375000000000
0.875000000000 0.375000000000 0.500000000000
0.875000000000 0.375000000000 0.625000000000
0.875000000000 0.375000000000 0.750000000000
0.875000000000 0.375000000000 0.875000000000
0.875000000000 0.500000000000 0.000000000000
0.875000000000 0.500000000000 0.125000000000
0.875000000000 0.500000000000 0.250000000000
0.875000000000 0.500000000000 0.375000000000
0.875000000000 0.500000000000 0.500000000000
0.875000000000 0.500000000000 0.625000000000
0.875000000000 0.500000000000 0.750000000000
0.875000000000 0.500000000000 0.875000000000
0.875000000000 0.625000000000 0.000000000000
0.875000000000 0.625000000000 0.125000000000
0.875000000000 0.625000000000 0.250000000000
0.875000000000 0.625000000000 0.375000000000
0.875000000000 0.625000000000 0.500000000000
0.875000000000 0.625000000000 0.625000000000
0.875000000000 0.625000000000 0.750000000000
0.875000000000 0.625000000000 0.875000000000
0.875000000000 0.750000000000 0.000000000000
0.875000000000 0.750000000000 0.125000000000
0.875000000000 0.750000000000 0.250000000000
0.875000000000 0.750000000000 0.375000000000
0.875000000000 0.750000000000 0.500000000000
0.875000000000 0.750000000000 0.625000000000
0.875000000000 0.750000000000 0.750000000000
0.875000000000 0.750000000000 0.875000000000
0.875000000000 0.875000000000 0.000000000000
0.875000000000 0.875000000000 0.125000000000
0.875000000000 0.875000000000 0.250000000000
0.875000000000 0.875000000000 0.375000000000
0.875000000000 0.875000000000 0.500000000000
0.875000000000 0.875000000000 0.625000000000
0.875000000000 0.875000000000 0.750000000000
0.875000000000 0.875000000000 0.875000000000
end kpoints
