&control
  calculation = 'nscf'
  prefix      = 'MnBi2Te4'
  outdir      = './tmp/'
  verbosity   = 'high'
  pseudo_dir  = './'
/
&system
  ibrav    = 0,              ! explicit CELL_PARAMETERS
  nat      = 14,             ! Te-Bi-Te-Mn-Te-Bi-Te
  ntyp     = 4,              ! Mn1, Mn2, Bi, Te
  nbnd     = 200
  ecutwfc  = 60.0,           ! plane-wave cutoff (Ry)—tune as needed
  ecutrho  = 240.0,
  nosym = .true.             ! must be true for Wannierization
  noinv = .true.             ! just in case for Wannierization
  nspin    = 2,              ! spin-polarized
  starting_magnetization(1) = 0.333,  ! Mn1
  starting_magnetization(2) = -0.333,  ! Mn2
  !angle1(1)   = 0.0   ! Specifies angle of spin with respect to z-axis
  !angle1(2)   = 180.0 ! Mn2 has opposite spin, i.e., angle1 = 180 degrees
  !angle2(1)   = 0.0   ! Specifies the azimuthal angle (in the plane perpendicular to z). It is irrelevant in this case
  !angle2(2)   = 0.0 
  occupations = 'smearing'
  smearing    = 'cold'
  degauss     = 0.002
  vdw_corr    = 'dft-d3'     ! keep vdw correction
  !noncolin   =  .true.
  !lspinorb   =  .true.
/
&electrons
  conv_thr         = 1.0d-7
  electron_maxstep = 80
  mixing_beta      = 0.4
/

ATOMIC_SPECIES
 Mn1  54.9380  Mn.pbe-spn-kjpaw_psl.0.3.1.UPF
 Mn2  54.9380  Mn.pbe-spn-kjpaw_psl.0.3.1.UPF
 Bi 208.9800   Bi.pbe-dn-kjpaw_psl.1.0.0.UPF
 Te 127.6030   Te.pbe-n-kjpaw_psl.1.0.0.UPF

HUBBARD (ortho-atomic)
 U Mn1-3d 4.0
 U Mn2-3d 4.0

CELL_PARAMETERS bohr
  4.094675180  -2.364074970  51.559304890
  0.000000000   4.728098160  51.559304890
 -4.094675180  -2.364074970  51.559304890

ATOMIC_POSITIONS crystal
Mn1          0.0000000000       0.0000000000       0.0000000000
Mn2          0.5000000000       0.5000000000       0.5000000000
Bi           0.2124500000       0.2124500000       0.2124500000
Bi           0.7124500000       0.7124500000       0.7124500000
Bi           0.2875500000       0.2875500000       0.2875500000
Bi           0.7875500000       0.7875500000       0.7875500000
Te           0.0666800000       0.0666800000       0.0666800000
Te           0.5666800000       0.5666800000       0.5666800000
Te           0.4333200000       0.4333200000       0.4333200000
Te           0.9333200000       0.9333200000       0.9333200000
Te           0.1470300000       0.1470300000       0.1470300000
Te           0.6470300000       0.6470300000       0.6470300000
Te           0.3529700000       0.3529700000       0.3529700000
Te           0.8529700000       0.8529700000       0.8529700000

!K_POINTS automatic
!  6 6 6  0 0 0

K_POINTS crystal ! 6x6x6 k-mesh
216
0.000000000000 0.000000000000 0.000000000000 0.004629629630
0.000000000000 0.000000000000 0.166666666667 0.004629629630
0.000000000000 0.000000000000 0.333333333333 0.004629629630
0.000000000000 0.000000000000 0.500000000000 0.004629629630
0.000000000000 0.000000000000 0.666666666667 0.004629629630
0.000000000000 0.000000000000 0.833333333333 0.004629629630
0.000000000000 0.166666666667 0.000000000000 0.004629629630
0.000000000000 0.166666666667 0.166666666667 0.004629629630
0.000000000000 0.166666666667 0.333333333333 0.004629629630
0.000000000000 0.166666666667 0.500000000000 0.004629629630
0.000000000000 0.166666666667 0.666666666667 0.004629629630
0.000000000000 0.166666666667 0.833333333333 0.004629629630
0.000000000000 0.333333333333 0.000000000000 0.004629629630
0.000000000000 0.333333333333 0.166666666667 0.004629629630
0.000000000000 0.333333333333 0.333333333333 0.004629629630
0.000000000000 0.333333333333 0.500000000000 0.004629629630
0.000000000000 0.333333333333 0.666666666667 0.004629629630
0.000000000000 0.333333333333 0.833333333333 0.004629629630
0.000000000000 0.500000000000 0.000000000000 0.004629629630
0.000000000000 0.500000000000 0.166666666667 0.004629629630
0.000000000000 0.500000000000 0.333333333333 0.004629629630
0.000000000000 0.500000000000 0.500000000000 0.004629629630
0.000000000000 0.500000000000 0.666666666667 0.004629629630
0.000000000000 0.500000000000 0.833333333333 0.004629629630
0.000000000000 0.666666666667 0.000000000000 0.004629629630
0.000000000000 0.666666666667 0.166666666667 0.004629629630
0.000000000000 0.666666666667 0.333333333333 0.004629629630
0.000000000000 0.666666666667 0.500000000000 0.004629629630
0.000000000000 0.666666666667 0.666666666667 0.004629629630
0.000000000000 0.666666666667 0.833333333333 0.004629629630
0.000000000000 0.833333333333 0.000000000000 0.004629629630
0.000000000000 0.833333333333 0.166666666667 0.004629629630
0.000000000000 0.833333333333 0.333333333333 0.004629629630
0.000000000000 0.833333333333 0.500000000000 0.004629629630
0.000000000000 0.833333333333 0.666666666667 0.004629629630
0.000000000000 0.833333333333 0.833333333333 0.004629629630
0.166666666667 0.000000000000 0.000000000000 0.004629629630
0.166666666667 0.000000000000 0.166666666667 0.004629629630
0.166666666667 0.000000000000 0.333333333333 0.004629629630
0.166666666667 0.000000000000 0.500000000000 0.004629629630
0.166666666667 0.000000000000 0.666666666667 0.004629629630
0.166666666667 0.000000000000 0.833333333333 0.004629629630
0.166666666667 0.166666666667 0.000000000000 0.004629629630
0.166666666667 0.166666666667 0.166666666667 0.004629629630
0.166666666667 0.166666666667 0.333333333333 0.004629629630
0.166666666667 0.166666666667 0.500000000000 0.004629629630
0.166666666667 0.166666666667 0.666666666667 0.004629629630
0.166666666667 0.166666666667 0.833333333333 0.004629629630
0.166666666667 0.333333333333 0.000000000000 0.004629629630
0.166666666667 0.333333333333 0.166666666667 0.004629629630
0.166666666667 0.333333333333 0.333333333333 0.004629629630
0.166666666667 0.333333333333 0.500000000000 0.004629629630
0.166666666667 0.333333333333 0.666666666667 0.004629629630
0.166666666667 0.333333333333 0.833333333333 0.004629629630
0.166666666667 0.500000000000 0.000000000000 0.004629629630
0.166666666667 0.500000000000 0.166666666667 0.004629629630
0.166666666667 0.500000000000 0.333333333333 0.004629629630
0.166666666667 0.500000000000 0.500000000000 0.004629629630
0.166666666667 0.500000000000 0.666666666667 0.004629629630
0.166666666667 0.500000000000 0.833333333333 0.004629629630
0.166666666667 0.666666666667 0.000000000000 0.004629629630
0.166666666667 0.666666666667 0.166666666667 0.004629629630
0.166666666667 0.666666666667 0.333333333333 0.004629629630
0.166666666667 0.666666666667 0.500000000000 0.004629629630
0.166666666667 0.666666666667 0.666666666667 0.004629629630
0.166666666667 0.666666666667 0.833333333333 0.004629629630
0.166666666667 0.833333333333 0.000000000000 0.004629629630
0.166666666667 0.833333333333 0.166666666667 0.004629629630
0.166666666667 0.833333333333 0.333333333333 0.004629629630
0.166666666667 0.833333333333 0.500000000000 0.004629629630
0.166666666667 0.833333333333 0.666666666667 0.004629629630
0.166666666667 0.833333333333 0.833333333333 0.004629629630
0.333333333333 0.000000000000 0.000000000000 0.004629629630
0.333333333333 0.000000000000 0.166666666667 0.004629629630
0.333333333333 0.000000000000 0.333333333333 0.004629629630
0.333333333333 0.000000000000 0.500000000000 0.004629629630
0.333333333333 0.000000000000 0.666666666667 0.004629629630
0.333333333333 0.000000000000 0.833333333333 0.004629629630
0.333333333333 0.166666666667 0.000000000000 0.004629629630
0.333333333333 0.166666666667 0.166666666667 0.004629629630
0.333333333333 0.166666666667 0.333333333333 0.004629629630
0.333333333333 0.166666666667 0.500000000000 0.004629629630
0.333333333333 0.166666666667 0.666666666667 0.004629629630
0.333333333333 0.166666666667 0.833333333333 0.004629629630
0.333333333333 0.333333333333 0.000000000000 0.004629629630
0.333333333333 0.333333333333 0.166666666667 0.004629629630
0.333333333333 0.333333333333 0.333333333333 0.004629629630
0.333333333333 0.333333333333 0.500000000000 0.004629629630
0.333333333333 0.333333333333 0.666666666667 0.004629629630
0.333333333333 0.333333333333 0.833333333333 0.004629629630
0.333333333333 0.500000000000 0.000000000000 0.004629629630
0.333333333333 0.500000000000 0.166666666667 0.004629629630
0.333333333333 0.500000000000 0.333333333333 0.004629629630
0.333333333333 0.500000000000 0.500000000000 0.004629629630
0.333333333333 0.500000000000 0.666666666667 0.004629629630
0.333333333333 0.500000000000 0.833333333333 0.004629629630
0.333333333333 0.666666666667 0.000000000000 0.004629629630
0.333333333333 0.666666666667 0.166666666667 0.004629629630
0.333333333333 0.666666666667 0.333333333333 0.004629629630
0.333333333333 0.666666666667 0.500000000000 0.004629629630
0.333333333333 0.666666666667 0.666666666667 0.004629629630
0.333333333333 0.666666666667 0.833333333333 0.004629629630
0.333333333333 0.833333333333 0.000000000000 0.004629629630
0.333333333333 0.833333333333 0.166666666667 0.004629629630
0.333333333333 0.833333333333 0.333333333333 0.004629629630
0.333333333333 0.833333333333 0.500000000000 0.004629629630
0.333333333333 0.833333333333 0.666666666667 0.004629629630
0.333333333333 0.833333333333 0.833333333333 0.004629629630
0.500000000000 0.000000000000 0.000000000000 0.004629629630
0.500000000000 0.000000000000 0.166666666667 0.004629629630
0.500000000000 0.000000000000 0.333333333333 0.004629629630
0.500000000000 0.000000000000 0.500000000000 0.004629629630
0.500000000000 0.000000000000 0.666666666667 0.004629629630
0.500000000000 0.000000000000 0.833333333333 0.004629629630
0.500000000000 0.166666666667 0.000000000000 0.004629629630
0.500000000000 0.166666666667 0.166666666667 0.004629629630
0.500000000000 0.166666666667 0.333333333333 0.004629629630
0.500000000000 0.166666666667 0.500000000000 0.004629629630
0.500000000000 0.166666666667 0.666666666667 0.004629629630
0.500000000000 0.166666666667 0.833333333333 0.004629629630
0.500000000000 0.333333333333 0.000000000000 0.004629629630
0.500000000000 0.333333333333 0.166666666667 0.004629629630
0.500000000000 0.333333333333 0.333333333333 0.004629629630
0.500000000000 0.333333333333 0.500000000000 0.004629629630
0.500000000000 0.333333333333 0.666666666667 0.004629629630
0.500000000000 0.333333333333 0.833333333333 0.004629629630
0.500000000000 0.500000000000 0.000000000000 0.004629629630
0.500000000000 0.500000000000 0.166666666667 0.004629629630
0.500000000000 0.500000000000 0.333333333333 0.004629629630
0.500000000000 0.500000000000 0.500000000000 0.004629629630
0.500000000000 0.500000000000 0.666666666667 0.004629629630
0.500000000000 0.500000000000 0.833333333333 0.004629629630
0.500000000000 0.666666666667 0.000000000000 0.004629629630
0.500000000000 0.666666666667 0.166666666667 0.004629629630
0.500000000000 0.666666666667 0.333333333333 0.004629629630
0.500000000000 0.666666666667 0.500000000000 0.004629629630
0.500000000000 0.666666666667 0.666666666667 0.004629629630
0.500000000000 0.666666666667 0.833333333333 0.004629629630
0.500000000000 0.833333333333 0.000000000000 0.004629629630
0.500000000000 0.833333333333 0.166666666667 0.004629629630
0.500000000000 0.833333333333 0.333333333333 0.004629629630
0.500000000000 0.833333333333 0.500000000000 0.004629629630
0.500000000000 0.833333333333 0.666666666667 0.004629629630
0.500000000000 0.833333333333 0.833333333333 0.004629629630
0.666666666667 0.000000000000 0.000000000000 0.004629629630
0.666666666667 0.000000000000 0.166666666667 0.004629629630
0.666666666667 0.000000000000 0.333333333333 0.004629629630
0.666666666667 0.000000000000 0.500000000000 0.004629629630
0.666666666667 0.000000000000 0.666666666667 0.004629629630
0.666666666667 0.000000000000 0.833333333333 0.004629629630
0.666666666667 0.166666666667 0.000000000000 0.004629629630
0.666666666667 0.166666666667 0.166666666667 0.004629629630
0.666666666667 0.166666666667 0.333333333333 0.004629629630
0.666666666667 0.166666666667 0.500000000000 0.004629629630
0.666666666667 0.166666666667 0.666666666667 0.004629629630
0.666666666667 0.166666666667 0.833333333333 0.004629629630
0.666666666667 0.333333333333 0.000000000000 0.004629629630
0.666666666667 0.333333333333 0.166666666667 0.004629629630
0.666666666667 0.333333333333 0.333333333333 0.004629629630
0.666666666667 0.333333333333 0.500000000000 0.004629629630
0.666666666667 0.333333333333 0.666666666667 0.004629629630
0.666666666667 0.333333333333 0.833333333333 0.004629629630
0.666666666667 0.500000000000 0.000000000000 0.004629629630
0.666666666667 0.500000000000 0.166666666667 0.004629629630
0.666666666667 0.500000000000 0.333333333333 0.004629629630
0.666666666667 0.500000000000 0.500000000000 0.004629629630
0.666666666667 0.500000000000 0.666666666667 0.004629629630
0.666666666667 0.500000000000 0.833333333333 0.004629629630
0.666666666667 0.666666666667 0.000000000000 0.004629629630
0.666666666667 0.666666666667 0.166666666667 0.004629629630
0.666666666667 0.666666666667 0.333333333333 0.004629629630
0.666666666667 0.666666666667 0.500000000000 0.004629629630
0.666666666667 0.666666666667 0.666666666667 0.004629629630
0.666666666667 0.666666666667 0.833333333333 0.004629629630
0.666666666667 0.833333333333 0.000000000000 0.004629629630
0.666666666667 0.833333333333 0.166666666667 0.004629629630
0.666666666667 0.833333333333 0.333333333333 0.004629629630
0.666666666667 0.833333333333 0.500000000000 0.004629629630
0.666666666667 0.833333333333 0.666666666667 0.004629629630
0.666666666667 0.833333333333 0.833333333333 0.004629629630
0.833333333333 0.000000000000 0.000000000000 0.004629629630
0.833333333333 0.000000000000 0.166666666667 0.004629629630
0.833333333333 0.000000000000 0.333333333333 0.004629629630
0.833333333333 0.000000000000 0.500000000000 0.004629629630
0.833333333333 0.000000000000 0.666666666667 0.004629629630
0.833333333333 0.000000000000 0.833333333333 0.004629629630
0.833333333333 0.166666666667 0.000000000000 0.004629629630
0.833333333333 0.166666666667 0.166666666667 0.004629629630
0.833333333333 0.166666666667 0.333333333333 0.004629629630
0.833333333333 0.166666666667 0.500000000000 0.004629629630
0.833333333333 0.166666666667 0.666666666667 0.004629629630
0.833333333333 0.166666666667 0.833333333333 0.004629629630
0.833333333333 0.333333333333 0.000000000000 0.004629629630
0.833333333333 0.333333333333 0.166666666667 0.004629629630
0.833333333333 0.333333333333 0.333333333333 0.004629629630
0.833333333333 0.333333333333 0.500000000000 0.004629629630
0.833333333333 0.333333333333 0.666666666667 0.004629629630
0.833333333333 0.333333333333 0.833333333333 0.004629629630
0.833333333333 0.500000000000 0.000000000000 0.004629629630
0.833333333333 0.500000000000 0.166666666667 0.004629629630
0.833333333333 0.500000000000 0.333333333333 0.004629629630
0.833333333333 0.500000000000 0.500000000000 0.004629629630
0.833333333333 0.500000000000 0.666666666667 0.004629629630
0.833333333333 0.500000000000 0.833333333333 0.004629629630
0.833333333333 0.666666666667 0.000000000000 0.004629629630
0.833333333333 0.666666666667 0.166666666667 0.004629629630
0.833333333333 0.666666666667 0.333333333333 0.004629629630
0.833333333333 0.666666666667 0.500000000000 0.004629629630
0.833333333333 0.666666666667 0.666666666667 0.004629629630
0.833333333333 0.666666666667 0.833333333333 0.004629629630
0.833333333333 0.833333333333 0.000000000000 0.004629629630
0.833333333333 0.833333333333 0.166666666667 0.004629629630
0.833333333333 0.833333333333 0.333333333333 0.004629629630
0.833333333333 0.833333333333 0.500000000000 0.004629629630
0.833333333333 0.833333333333 0.666666666667 0.004629629630
0.833333333333 0.833333333333 0.833333333333 0.004629629630