num_bands = 200
num_wann  = 46 ! 92/2 = 46 without SOC
num_iter  = 1000

dis_win_min = 0
dis_win_max = 20
dis_froz_min = 0
dis_froz_max =  10
dis_conv_tol = 1e-10
dis_num_iter =  500
!dis_mix_ratio = 1.0

use_ws_distance = true
spinors = false    ! With no SOC this should be false right?
bands_plot = true
write_hr = true
write_xyz = true
translate_home_cell = true

begin atoms_frac
Mn1          0.0000000000       0.0000000000       0.0000000000
Mn2          0.5000000000       0.5000000000       0.5000000000
Bi           0.2124500000       0.2124500000       0.2124500000
Bi           0.7124500000       0.7124500000       0.7124500000
Bi           0.2875500000       0.2875500000       0.2875500000
Bi           0.7875500000       0.7875500000       0.7875500000
Te           0.0666800000       0.0666800000       0.0666800000
Te           0.5666800000       0.5666800000       0.5666800000
Te           0.4333200000       0.4333200000       0.4333200000
Te           0.9333200000       0.9333200000       0.9333200000
Te           0.1470300000       0.1470300000       0.1470300000
Te           0.6470300000       0.6470300000       0.6470300000
Te           0.3529700000       0.3529700000       0.3529700000
Te           0.8529700000       0.8529700000       0.8529700000
end atoms_frac

begin unit_cell_cart
angstrom
4.3200267252       0.0000000000      27.0557586366
2.1464187785       3.7490688622      27.0557586366
0.0000000000       0.0000000000      27.3984800000
end unit_cell_cart

begin projections
Bi: p
Te: p
Mn1: d
Mn2: d
end projections

begin kpoint_path
G 0.0 0.0 0.0 T 0.5 0.5 0.5
T 0.5 0.5 0.5 P1 0.6638635638 0.1722728724 0.6638635638
P1 0.6638635638	0.1722728724 0.6638635638 F 0.5 0.0 0.5 
F 0.5 0.0 0.5 G 0.0 0.0 0.0
G 0.0 0.0 0.0 L 0.5 0.0 0.0
end kpoint_path

mp_grid  = 8 8 8
kmesh_tol = 1e-4    !  Prevent round-off errors

begin kpoints
0.000000000000 0.000000000000 0.000000000000
0.000000000000 0.000000000000 0.125000000000
0.000000000000 0.000000000000 0.250000000000
0.000000000000 0.000000000000 0.375000000000
0.000000000000 0.000000000000 0.500000000000
0.000000000000 0.000000000000 0.625000000000
0.000000000000 0.000000000000 0.750000000000
0.000000000000 0.000000000000 0.875000000000
0.000000000000 0.125000000000 0.000000000000
0.000000000000 0.125000000000 0.125000000000
0.000000000000 0.125000000000 0.250000000000
0.000000000000 0.125000000000 0.375000000000
0.000000000000 0.125000000000 0.500000000000
0.000000000000 0.125000000000 0.625000000000
0.000000000000 0.125000000000 0.750000000000
0.000000000000 0.125000000000 0.875000000000
0.000000000000 0.250000000000 0.000000000000
0.000000000000 0.250000000000 0.125000000000
0.000000000000 0.250000000000 0.250000000000
0.000000000000 0.250000000000 0.375000000000
0.000000000000 0.250000000000 0.500000000000
0.000000000000 0.250000000000 0.625000000000
0.000000000000 0.250000000000 0.750000000000
0.000000000000 0.250000000000 0.875000000000
0.000000000000 0.375000000000 0.000000000000
0.000000000000 0.375000000000 0.125000000000
0.000000000000 0.375000000000 0.250000000000
0.000000000000 0.375000000000 0.375000000000
0.000000000000 0.375000000000 0.500000000000
0.000000000000 0.375000000000 0.625000000000
0.000000000000 0.375000000000 0.750000000000
0.000000000000 0.375000000000 0.875000000000
0.000000000000 0.500000000000 0.000000000000
0.000000000000 0.500000000000 0.125000000000
0.000000000000 0.500000000000 0.250000000000
0.000000000000 0.500000000000 0.375000000000
0.000000000000 0.500000000000 0.500000000000
0.000000000000 0.500000000000 0.625000000000
0.000000000000 0.500000000000 0.750000000000
0.000000000000 0.500000000000 0.875000000000
0.000000000000 0.625000000000 0.000000000000
0.000000000000 0.625000000000 0.125000000000
0.000000000000 0.625000000000 0.250000000000
0.000000000000 0.625000000000 0.375000000000
0.000000000000 0.625000000000 0.500000000000
0.000000000000 0.625000000000 0.625000000000
0.000000000000 0.625000000000 0.750000000000
0.000000000000 0.625000000000 0.875000000000
0.000000000000 0.750000000000 0.000000000000
0.000000000000 0.750000000000 0.125000000000
0.000000000000 0.750000000000 0.250000000000
0.000000000000 0.750000000000 0.375000000000
0.000000000000 0.750000000000 0.500000000000
0.000000000000 0.750000000000 0.625000000000
0.000000000000 0.750000000000 0.750000000000
0.000000000000 0.750000000000 0.875000000000
0.000000000000 0.875000000000 0.000000000000
0.000000000000 0.875000000000 0.125000000000
0.000000000000 0.875000000000 0.250000000000
0.000000000000 0.875000000000 0.375000000000
0.000000000000 0.875000000000 0.500000000000
0.000000000000 0.875000000000 0.625000000000
0.000000000000 0.875000000000 0.750000000000
0.000000000000 0.875000000000 0.875000000000
0.125000000000 0.000000000000 0.000000000000
0.125000000000 0.000000000000 0.125000000000
0.125000000000 0.000000000000 0.250000000000
0.125000000000 0.000000000000 0.375000000000
0.125000000000 0.000000000000 0.500000000000
0.125000000000 0.000000000000 0.625000000000
0.125000000000 0.000000000000 0.750000000000
0.125000000000 0.000000000000 0.875000000000
0.125000000000 0.125000000000 0.000000000000
0.125000000000 0.125000000000 0.125000000000
0.125000000000 0.125000000000 0.250000000000
0.125000000000 0.125000000000 0.375000000000
0.125000000000 0.125000000000 0.500000000000
0.125000000000 0.125000000000 0.625000000000
0.125000000000 0.125000000000 0.750000000000
0.125000000000 0.125000000000 0.875000000000
0.125000000000 0.250000000000 0.000000000000
0.125000000000 0.250000000000 0.125000000000
0.125000000000 0.250000000000 0.250000000000
0.125000000000 0.250000000000 0.375000000000
0.125000000000 0.250000000000 0.500000000000
0.125000000000 0.250000000000 0.625000000000
0.125000000000 0.250000000000 0.750000000000
0.125000000000 0.250000000000 0.875000000000
0.125000000000 0.375000000000 0.000000000000
0.125000000000 0.375000000000 0.125000000000
0.125000000000 0.375000000000 0.250000000000
0.125000000000 0.375000000000 0.375000000000
0.125000000000 0.375000000000 0.500000000000
0.125000000000 0.375000000000 0.625000000000
0.125000000000 0.375000000000 0.750000000000
0.125000000000 0.375000000000 0.875000000000
0.125000000000 0.500000000000 0.000000000000
0.125000000000 0.500000000000 0.125000000000
0.125000000000 0.500000000000 0.250000000000
0.125000000000 0.500000000000 0.375000000000
0.125000000000 0.500000000000 0.500000000000
0.125000000000 0.500000000000 0.625000000000
0.125000000000 0.500000000000 0.750000000000
0.125000000000 0.500000000000 0.875000000000
0.125000000000 0.625000000000 0.000000000000
0.125000000000 0.625000000000 0.125000000000
0.125000000000 0.625000000000 0.250000000000
0.125000000000 0.625000000000 0.375000000000
0.125000000000 0.625000000000 0.500000000000
0.125000000000 0.625000000000 0.625000000000
0.125000000000 0.625000000000 0.750000000000
0.125000000000 0.625000000000 0.875000000000
0.125000000000 0.750000000000 0.000000000000
0.125000000000 0.750000000000 0.125000000000
0.125000000000 0.750000000000 0.250000000000
0.125000000000 0.750000000000 0.375000000000
0.125000000000 0.750000000000 0.500000000000
0.125000000000 0.750000000000 0.625000000000
0.125000000000 0.750000000000 0.750000000000
0.125000000000 0.750000000000 0.875000000000
0.125000000000 0.875000000000 0.000000000000
0.125000000000 0.875000000000 0.125000000000
0.125000000000 0.875000000000 0.250000000000
0.125000000000 0.875000000000 0.375000000000
0.125000000000 0.875000000000 0.500000000000
0.125000000000 0.875000000000 0.625000000000
0.125000000000 0.875000000000 0.750000000000
0.125000000000 0.875000000000 0.875000000000
0.250000000000 0.000000000000 0.000000000000
0.250000000000 0.000000000000 0.125000000000
0.250000000000 0.000000000000 0.250000000000
0.250000000000 0.000000000000 0.375000000000
0.250000000000 0.000000000000 0.500000000000
0.250000000000 0.000000000000 0.625000000000
0.250000000000 0.000000000000 0.750000000000
0.250000000000 0.000000000000 0.875000000000
0.250000000000 0.125000000000 0.000000000000
0.250000000000 0.125000000000 0.125000000000
0.250000000000 0.125000000000 0.250000000000
0.250000000000 0.125000000000 0.375000000000
0.250000000000 0.125000000000 0.500000000000
0.250000000000 0.125000000000 0.625000000000
0.250000000000 0.125000000000 0.750000000000
0.250000000000 0.125000000000 0.875000000000
0.250000000000 0.250000000000 0.000000000000
0.250000000000 0.250000000000 0.125000000000
0.250000000000 0.250000000000 0.250000000000
0.250000000000 0.250000000000 0.375000000000
0.250000000000 0.250000000000 0.500000000000
0.250000000000 0.250000000000 0.625000000000
0.250000000000 0.250000000000 0.750000000000
0.250000000000 0.250000000000 0.875000000000
0.250000000000 0.375000000000 0.000000000000
0.250000000000 0.375000000000 0.125000000000
0.250000000000 0.375000000000 0.250000000000
0.250000000000 0.375000000000 0.375000000000
0.250000000000 0.375000000000 0.500000000000
0.250000000000 0.375000000000 0.625000000000
0.250000000000 0.375000000000 0.750000000000
0.250000000000 0.375000000000 0.875000000000
0.250000000000 0.500000000000 0.000000000000
0.250000000000 0.500000000000 0.125000000000
0.250000000000 0.500000000000 0.250000000000
0.250000000000 0.500000000000 0.375000000000
0.250000000000 0.500000000000 0.500000000000
0.250000000000 0.500000000000 0.625000000000
0.250000000000 0.500000000000 0.750000000000
0.250000000000 0.500000000000 0.875000000000
0.250000000000 0.625000000000 0.000000000000
0.250000000000 0.625000000000 0.125000000000
0.250000000000 0.625000000000 0.250000000000
0.250000000000 0.625000000000 0.375000000000
0.250000000000 0.625000000000 0.500000000000
0.250000000000 0.625000000000 0.625000000000
0.250000000000 0.625000000000 0.750000000000
0.250000000000 0.625000000000 0.875000000000
0.250000000000 0.750000000000 0.000000000000
0.250000000000 0.750000000000 0.125000000000
0.250000000000 0.750000000000 0.250000000000
0.250000000000 0.750000000000 0.375000000000
0.250000000000 0.750000000000 0.500000000000
0.250000000000 0.750000000000 0.625000000000
0.250000000000 0.750000000000 0.750000000000
0.250000000000 0.750000000000 0.875000000000
0.250000000000 0.875000000000 0.000000000000
0.250000000000 0.875000000000 0.125000000000
0.250000000000 0.875000000000 0.250000000000
0.250000000000 0.875000000000 0.375000000000
0.250000000000 0.875000000000 0.500000000000
0.250000000000 0.875000000000 0.625000000000
0.250000000000 0.875000000000 0.750000000000
0.250000000000 0.875000000000 0.875000000000
0.375000000000 0.000000000000 0.000000000000
0.375000000000 0.000000000000 0.125000000000
0.375000000000 0.000000000000 0.250000000000
0.375000000000 0.000000000000 0.375000000000
0.375000000000 0.000000000000 0.500000000000
0.375000000000 0.000000000000 0.625000000000
0.375000000000 0.000000000000 0.750000000000
0.375000000000 0.000000000000 0.875000000000
0.375000000000 0.125000000000 0.000000000000
0.375000000000 0.125000000000 0.125000000000
0.375000000000 0.125000000000 0.250000000000
0.375000000000 0.125000000000 0.375000000000
0.375000000000 0.125000000000 0.500000000000
0.375000000000 0.125000000000 0.625000000000
0.375000000000 0.125000000000 0.750000000000
0.375000000000 0.125000000000 0.875000000000
0.375000000000 0.250000000000 0.000000000000
0.375000000000 0.250000000000 0.125000000000
0.375000000000 0.250000000000 0.250000000000
0.375000000000 0.250000000000 0.375000000000
0.375000000000 0.250000000000 0.500000000000
0.375000000000 0.250000000000 0.625000000000
0.375000000000 0.250000000000 0.750000000000
0.375000000000 0.250000000000 0.875000000000
0.375000000000 0.375000000000 0.000000000000
0.375000000000 0.375000000000 0.125000000000
0.375000000000 0.375000000000 0.250000000000
0.375000000000 0.375000000000 0.375000000000
0.375000000000 0.375000000000 0.500000000000
0.375000000000 0.375000000000 0.625000000000
0.375000000000 0.375000000000 0.750000000000
0.375000000000 0.375000000000 0.875000000000
0.375000000000 0.500000000000 0.000000000000
0.375000000000 0.500000000000 0.125000000000
0.375000000000 0.500000000000 0.250000000000
0.375000000000 0.500000000000 0.375000000000
0.375000000000 0.500000000000 0.500000000000
0.375000000000 0.500000000000 0.625000000000
0.375000000000 0.500000000000 0.750000000000
0.375000000000 0.500000000000 0.875000000000
0.375000000000 0.625000000000 0.000000000000
0.375000000000 0.625000000000 0.125000000000
0.375000000000 0.625000000000 0.250000000000
0.375000000000 0.625000000000 0.375000000000
0.375000000000 0.625000000000 0.500000000000
0.375000000000 0.625000000000 0.625000000000
0.375000000000 0.625000000000 0.750000000000
0.375000000000 0.625000000000 0.875000000000
0.375000000000 0.750000000000 0.000000000000
0.375000000000 0.750000000000 0.125000000000
0.375000000000 0.750000000000 0.250000000000
0.375000000000 0.750000000000 0.375000000000
0.375000000000 0.750000000000 0.500000000000
0.375000000000 0.750000000000 0.625000000000
0.375000000000 0.750000000000 0.750000000000
0.375000000000 0.750000000000 0.875000000000
0.375000000000 0.875000000000 0.000000000000
0.375000000000 0.875000000000 0.125000000000
0.375000000000 0.875000000000 0.250000000000
0.375000000000 0.875000000000 0.375000000000
0.375000000000 0.875000000000 0.500000000000
0.375000000000 0.875000000000 0.625000000000
0.375000000000 0.875000000000 0.750000000000
0.375000000000 0.875000000000 0.875000000000
0.500000000000 0.000000000000 0.000000000000
0.500000000000 0.000000000000 0.125000000000
0.500000000000 0.000000000000 0.250000000000
0.500000000000 0.000000000000 0.375000000000
0.500000000000 0.000000000000 0.500000000000
0.500000000000 0.000000000000 0.625000000000
0.500000000000 0.000000000000 0.750000000000
0.500000000000 0.000000000000 0.875000000000
0.500000000000 0.125000000000 0.000000000000
0.500000000000 0.125000000000 0.125000000000
0.500000000000 0.125000000000 0.250000000000
0.500000000000 0.125000000000 0.375000000000
0.500000000000 0.125000000000 0.500000000000
0.500000000000 0.125000000000 0.625000000000
0.500000000000 0.125000000000 0.750000000000
0.500000000000 0.125000000000 0.875000000000
0.500000000000 0.250000000000 0.000000000000
0.500000000000 0.250000000000 0.125000000000
0.500000000000 0.250000000000 0.250000000000
0.500000000000 0.250000000000 0.375000000000
0.500000000000 0.250000000000 0.500000000000
0.500000000000 0.250000000000 0.625000000000
0.500000000000 0.250000000000 0.750000000000
0.500000000000 0.250000000000 0.875000000000
0.500000000000 0.375000000000 0.000000000000
0.500000000000 0.375000000000 0.125000000000
0.500000000000 0.375000000000 0.250000000000
0.500000000000 0.375000000000 0.375000000000
0.500000000000 0.375000000000 0.500000000000
0.500000000000 0.375000000000 0.625000000000
0.500000000000 0.375000000000 0.750000000000
0.500000000000 0.375000000000 0.875000000000
0.500000000000 0.500000000000 0.000000000000
0.500000000000 0.500000000000 0.125000000000
0.500000000000 0.500000000000 0.250000000000
0.500000000000 0.500000000000 0.375000000000
0.500000000000 0.500000000000 0.500000000000
0.500000000000 0.500000000000 0.625000000000
0.500000000000 0.500000000000 0.750000000000
0.500000000000 0.500000000000 0.875000000000
0.500000000000 0.625000000000 0.000000000000
0.500000000000 0.625000000000 0.125000000000
0.500000000000 0.625000000000 0.250000000000
0.500000000000 0.625000000000 0.375000000000
0.500000000000 0.625000000000 0.500000000000
0.500000000000 0.625000000000 0.625000000000
0.500000000000 0.625000000000 0.750000000000
0.500000000000 0.625000000000 0.875000000000
0.500000000000 0.750000000000 0.000000000000
0.500000000000 0.750000000000 0.125000000000
0.500000000000 0.750000000000 0.250000000000
0.500000000000 0.750000000000 0.375000000000
0.500000000000 0.750000000000 0.500000000000
0.500000000000 0.750000000000 0.625000000000
0.500000000000 0.750000000000 0.750000000000
0.500000000000 0.750000000000 0.875000000000
0.500000000000 0.875000000000 0.000000000000
0.500000000000 0.875000000000 0.125000000000
0.500000000000 0.875000000000 0.250000000000
0.500000000000 0.875000000000 0.375000000000
0.500000000000 0.875000000000 0.500000000000
0.500000000000 0.875000000000 0.625000000000
0.500000000000 0.875000000000 0.750000000000
0.500000000000 0.875000000000 0.875000000000
0.625000000000 0.000000000000 0.000000000000
0.625000000000 0.000000000000 0.125000000000
0.625000000000 0.000000000000 0.250000000000
0.625000000000 0.000000000000 0.375000000000
0.625000000000 0.000000000000 0.500000000000
0.625000000000 0.000000000000 0.625000000000
0.625000000000 0.000000000000 0.750000000000
0.625000000000 0.000000000000 0.875000000000
0.625000000000 0.125000000000 0.000000000000
0.625000000000 0.125000000000 0.125000000000
0.625000000000 0.125000000000 0.250000000000
0.625000000000 0.125000000000 0.375000000000
0.625000000000 0.125000000000 0.500000000000
0.625000000000 0.125000000000 0.625000000000
0.625000000000 0.125000000000 0.750000000000
0.625000000000 0.125000000000 0.875000000000
0.625000000000 0.250000000000 0.000000000000
0.625000000000 0.250000000000 0.125000000000
0.625000000000 0.250000000000 0.250000000000
0.625000000000 0.250000000000 0.375000000000
0.625000000000 0.250000000000 0.500000000000
0.625000000000 0.250000000000 0.625000000000
0.625000000000 0.250000000000 0.750000000000
0.625000000000 0.250000000000 0.875000000000
0.625000000000 0.375000000000 0.000000000000
0.625000000000 0.375000000000 0.125000000000
0.625000000000 0.375000000000 0.250000000000
0.625000000000 0.375000000000 0.375000000000
0.625000000000 0.375000000000 0.500000000000
0.625000000000 0.375000000000 0.625000000000
0.625000000000 0.375000000000 0.750000000000
0.625000000000 0.375000000000 0.875000000000
0.625000000000 0.500000000000 0.000000000000
0.625000000000 0.500000000000 0.125000000000
0.625000000000 0.500000000000 0.250000000000
0.625000000000 0.500000000000 0.375000000000
0.625000000000 0.500000000000 0.500000000000
0.625000000000 0.500000000000 0.625000000000
0.625000000000 0.500000000000 0.750000000000
0.625000000000 0.500000000000 0.875000000000
0.625000000000 0.625000000000 0.000000000000
0.625000000000 0.625000000000 0.125000000000
0.625000000000 0.625000000000 0.250000000000
0.625000000000 0.625000000000 0.375000000000
0.625000000000 0.625000000000 0.500000000000
0.625000000000 0.625000000000 0.625000000000
0.625000000000 0.625000000000 0.750000000000
0.625000000000 0.625000000000 0.875000000000
0.625000000000 0.750000000000 0.000000000000
0.625000000000 0.750000000000 0.125000000000
0.625000000000 0.750000000000 0.250000000000
0.625000000000 0.750000000000 0.375000000000
0.625000000000 0.750000000000 0.500000000000
0.625000000000 0.750000000000 0.625000000000
0.625000000000 0.750000000000 0.750000000000
0.625000000000 0.750000000000 0.875000000000
0.625000000000 0.875000000000 0.000000000000
0.625000000000 0.875000000000 0.125000000000
0.625000000000 0.875000000000 0.250000000000
0.625000000000 0.875000000000 0.375000000000
0.625000000000 0.875000000000 0.500000000000
0.625000000000 0.875000000000 0.625000000000
0.625000000000 0.875000000000 0.750000000000
0.625000000000 0.875000000000 0.875000000000
0.750000000000 0.000000000000 0.000000000000
0.750000000000 0.000000000000 0.125000000000
0.750000000000 0.000000000000 0.250000000000
0.750000000000 0.000000000000 0.375000000000
0.750000000000 0.000000000000 0.500000000000
0.750000000000 0.000000000000 0.625000000000
0.750000000000 0.000000000000 0.750000000000
0.750000000000 0.000000000000 0.875000000000
0.750000000000 0.125000000000 0.000000000000
0.750000000000 0.125000000000 0.125000000000
0.750000000000 0.125000000000 0.250000000000
0.750000000000 0.125000000000 0.375000000000
0.750000000000 0.125000000000 0.500000000000
0.750000000000 0.125000000000 0.625000000000
0.750000000000 0.125000000000 0.750000000000
0.750000000000 0.125000000000 0.875000000000
0.750000000000 0.250000000000 0.000000000000
0.750000000000 0.250000000000 0.125000000000
0.750000000000 0.250000000000 0.250000000000
0.750000000000 0.250000000000 0.375000000000
0.750000000000 0.250000000000 0.500000000000
0.750000000000 0.250000000000 0.625000000000
0.750000000000 0.250000000000 0.750000000000
0.750000000000 0.250000000000 0.875000000000
0.750000000000 0.375000000000 0.000000000000
0.750000000000 0.375000000000 0.125000000000
0.750000000000 0.375000000000 0.250000000000
0.750000000000 0.375000000000 0.375000000000
0.750000000000 0.375000000000 0.500000000000
0.750000000000 0.375000000000 0.625000000000
0.750000000000 0.375000000000 0.750000000000
0.750000000000 0.375000000000 0.875000000000
0.750000000000 0.500000000000 0.000000000000
0.750000000000 0.500000000000 0.125000000000
0.750000000000 0.500000000000 0.250000000000
0.750000000000 0.500000000000 0.375000000000
0.750000000000 0.500000000000 0.500000000000
0.750000000000 0.500000000000 0.625000000000
0.750000000000 0.500000000000 0.750000000000
0.750000000000 0.500000000000 0.875000000000
0.750000000000 0.625000000000 0.000000000000
0.750000000000 0.625000000000 0.125000000000
0.750000000000 0.625000000000 0.250000000000
0.750000000000 0.625000000000 0.375000000000
0.750000000000 0.625000000000 0.500000000000
0.750000000000 0.625000000000 0.625000000000
0.750000000000 0.625000000000 0.750000000000
0.750000000000 0.625000000000 0.875000000000
0.750000000000 0.750000000000 0.000000000000
0.750000000000 0.750000000000 0.125000000000
0.750000000000 0.750000000000 0.250000000000
0.750000000000 0.750000000000 0.375000000000
0.750000000000 0.750000000000 0.500000000000
0.750000000000 0.750000000000 0.625000000000
0.750000000000 0.750000000000 0.750000000000
0.750000000000 0.750000000000 0.875000000000
0.750000000000 0.875000000000 0.000000000000
0.750000000000 0.875000000000 0.125000000000
0.750000000000 0.875000000000 0.250000000000
0.750000000000 0.875000000000 0.375000000000
0.750000000000 0.875000000000 0.500000000000
0.750000000000 0.875000000000 0.625000000000
0.750000000000 0.875000000000 0.750000000000
0.750000000000 0.875000000000 0.875000000000
0.875000000000 0.000000000000 0.000000000000
0.875000000000 0.000000000000 0.125000000000
0.875000000000 0.000000000000 0.250000000000
0.875000000000 0.000000000000 0.375000000000
0.875000000000 0.000000000000 0.500000000000
0.875000000000 0.000000000000 0.625000000000
0.875000000000 0.000000000000 0.750000000000
0.875000000000 0.000000000000 0.875000000000
0.875000000000 0.125000000000 0.000000000000
0.875000000000 0.125000000000 0.125000000000
0.875000000000 0.125000000000 0.250000000000
0.875000000000 0.125000000000 0.375000000000
0.875000000000 0.125000000000 0.500000000000
0.875000000000 0.125000000000 0.625000000000
0.875000000000 0.125000000000 0.750000000000
0.875000000000 0.125000000000 0.875000000000
0.875000000000 0.250000000000 0.000000000000
0.875000000000 0.250000000000 0.125000000000
0.875000000000 0.250000000000 0.250000000000
0.875000000000 0.250000000000 0.375000000000
0.875000000000 0.250000000000 0.500000000000
0.875000000000 0.250000000000 0.625000000000
0.875000000000 0.250000000000 0.750000000000
0.875000000000 0.250000000000 0.875000000000
0.875000000000 0.375000000000 0.000000000000
0.875000000000 0.375000000000 0.125000000000
0.875000000000 0.375000000000 0.250000000000
0.875000000000 0.375000000000 0.375000000000
0.875000000000 0.375000000000 0.500000000000
0.875000000000 0.375000000000 0.625000000000
0.875000000000 0.375000000000 0.750000000000
0.875000000000 0.375000000000 0.875000000000
0.875000000000 0.500000000000 0.000000000000
0.875000000000 0.500000000000 0.125000000000
0.875000000000 0.500000000000 0.250000000000
0.875000000000 0.500000000000 0.375000000000
0.875000000000 0.500000000000 0.500000000000
0.875000000000 0.500000000000 0.625000000000
0.875000000000 0.500000000000 0.750000000000
0.875000000000 0.500000000000 0.875000000000
0.875000000000 0.625000000000 0.000000000000
0.875000000000 0.625000000000 0.125000000000
0.875000000000 0.625000000000 0.250000000000
0.875000000000 0.625000000000 0.375000000000
0.875000000000 0.625000000000 0.500000000000
0.875000000000 0.625000000000 0.625000000000
0.875000000000 0.625000000000 0.750000000000
0.875000000000 0.625000000000 0.875000000000
0.875000000000 0.750000000000 0.000000000000
0.875000000000 0.750000000000 0.125000000000
0.875000000000 0.750000000000 0.250000000000
0.875000000000 0.750000000000 0.375000000000
0.875000000000 0.750000000000 0.500000000000
0.875000000000 0.750000000000 0.625000000000
0.875000000000 0.750000000000 0.750000000000
0.875000000000 0.750000000000 0.875000000000
0.875000000000 0.875000000000 0.000000000000
0.875000000000 0.875000000000 0.125000000000
0.875000000000 0.875000000000 0.250000000000
0.875000000000 0.875000000000 0.375000000000
0.875000000000 0.875000000000 0.500000000000
0.875000000000 0.875000000000 0.625000000000
0.875000000000 0.875000000000 0.750000000000
0.875000000000 0.875000000000 0.875000000000
end kpoints