&bands
   prefix='MnBi2Te4',
   outdir='./tmp/',
   filband = 'MnBi2Te4_bands.dat'
/